c WARNING: for repeatability, setting FPU to use double precision
d VARIABLES            211614       
d CONSTRAINTS          781872       
c ============================[ Problem Statistics ]=============================
c |                                                                             |
c |  Number of variables:        211614                                         |
c |  Number of clauses:          781872                                         |
c |  Parse time:                   0.14 s                                       |
c |                                                                             |
c ============================[ Search Statistics ]==============================
c | Conflicts |          ORIGINAL         |          LEARNT          | Progress |
c |           |    Vars  Clauses Literals |    Limit  Clauses Lit/Cl |          |
c ===============================================================================
c |       100 |  174549   687034  1725505 |   251912      100     39 | 17.515 % |
c |       250 |  174549   687034  1725505 |   277103      250     30 | 17.515 % |
c |       475 |  174549   687034  1725505 |   304814      475     18 | 17.515 % |
c |       812 |  174549   687034  1725505 |   335295      812     13 | 17.515 % |
c |      1318 |  174549   687034  1725505 |   368825     1318     11 | 17.515 % |
c |      2077 |  174549   687034  1725505 |   405707     2077     15 | 17.515 % |
c |      3216 |  174549   687034  1725505 |   446278     3216     30 | 17.515 % |
c |      4924 |  174549   687034  1725505 |   490906     4924     39 | 17.515 % |
c |      7486 |  174549   687034  1725505 |   539996     7486     60 | 17.515 % |
c |     11330 |  174549   687034  1725505 |   593996    11330     60 | 17.515 % |
c |     17096 |  174549   687034  1725505 |   653396    17096     60 | 17.515 % |
c |     25745 |  174549   687034  1725505 |   718735    25745     70 | 17.515 % |
c |     38719 |  174549   687034  1725505 |   790609    38719     85 | 17.515 % |
c |     58180 |  174549   687034  1725505 |   869670    58180    104 | 17.515 % |
c |     87372 |  174549   687034  1725505 |   956637    87372    100 | 17.515 % |
c |    131161 |  174549   687034  1725505 |  1052300   131161    115 | 17.515 % |
c |    196845 |  174549   687034  1725505 |  1157530   196845    123 | 17.515 % |
c |    295371 |  174549   687034  1725505 |  1273284   295371    131 | 17.515 % |
c |    443160 |  174547   687026  1725485 |  1400612   443152    140 | 17.516 % |
c |    664843 |  174547   687026  1725485 |  1540673   664835    148 | 17.516 % |
c |    997368 |  174547   687026  1725485 |  1694741   997360    150 | 17.516 % |
c |   1496156 |  174547   687026  1725485 |  1864215  1496148    152 | 17.516 % |
c |   2244338 |  174547   687026  1725485 |  2050636   407864    129 | 17.516 % |
c ===============================================================================
c restarts              : 4095
c conflicts             : 2366085        (1322 /sec)
c decisions             : 8158866        (0.00 % random) (4557 /sec)
c propagations          : 5294277313     (2957327 /sec)
c conflict literals     : 366468555      (31.51 % deleted)
d RESTARTS             4095
d FAILURES             2366085      
d NODES                8158866      
d BACKTRACKS           8158866      
d PROPAGATIONS         5294277313   
d NOGOODSIZE           154.88 
d MEMORY               1650.00 
d TIME                 1790.22 

s UNKNOWN
